experiments/eusolverstring/4/TrainGenes/110111001101100011010111101101111001000101100110010111111100000001100010000/25_.out
3 {f:func22(Param0,-1,func58(Param0))}
0.0000350000
0.0000000000
0.7367030000
